Example_III/other_models/162/model_162_Log_1_cores.log

Gurobi 9.0.2 (linux64) logging started Mon Sep 14 07:20:34 2020

Changed value of parameter LogFile to model_162_Log_1_cores.log
   Prev:   Default: 
Changed value of parameter Threads to 1
   Prev: 0  Min: 0  Max: 1024  Default: 0
Gurobi Optimizer version 9.0.2 build v9.0.2rc0 (linux64)
Optimize a model with 10838 rows, 38880 columns and 175176 nonzeros
Model fingerprint: 0x0cb0ca9b
Variable types: 0 continuous, 38880 integer (38880 binary)
Coefficient statistics:
  Matrix range     [1e+00, 6e+01]
  Objective range  [1e+00, 1e+00]
  Bounds range     [1e+00, 1e+00]
  RHS range        [1e+00, 3e+02]
Presolve removed 909 rows and 3807 columns
Presolve time: 0.31s
Presolved: 9929 rows, 35073 columns, 157363 nonzeros
Variable types: 0 continuous, 35073 integer (35073 binary)

Root relaxation: objective 1.000000e+00, 2527 iterations, 0.07 seconds

    Nodes    |    Current Node    |     Objective Bounds      |     Work
 Expl Unexpl |  Obj  Depth IntInf | Incumbent    BestBd   Gap | It/Node Time

     0     0    1.00000    0  475          -    1.00000      -     -    1s
     0     0    1.00000    0  544          -    1.00000      -     -    1s
     0     0    1.00000    0  542          -    1.00000      -     -    1s
     0     0    1.00000    0  251          -    1.00000      -     -    2s
     0     0    1.00000    0  256          -    1.00000      -     -    2s
     0     0    1.00000    0  229          -    1.00000      -     -    3s
     0     0    1.00000    0  268          -    1.00000      -     -    3s
     0     0    1.00000    0  165          -    1.00000      -     -    3s
     0     0    1.00000    0  202          -    1.00000      -     -    3s
     0     0    1.00000    0  148          -    1.00000      -     -    4s
     0     0    1.00000    0  213          -    1.00000      -     -    4s
     0     0    1.00000    0  149          -    1.00000      -     -    5s
     0     0    1.00000    0  365          -    1.00000      -     -    5s
     0     0    1.00000    0  185          -    1.00000      -     -    5s
     0     0    1.00000    0  185          -    1.00000      -     -    6s
     0     2    1.00000    0  185          -    1.00000      -     -    8s
   150    26 infeasible   17               -    1.00000      -   204   10s
   360    38    1.00000   60  150          -    1.00000      -   460   15s
   555    49    1.00000   40  176          -    1.00000      -   544   20s
   975   149    1.07843  164   57          -    1.00000      -   373   25s
  1024   196    1.07843  166  261          -    1.00000      -   358   30s
  1033   202    1.00000   94  287          -    1.00000      -   355   35s
  1037   205    1.07843  151  207          -    1.00000      -   354   40s
  1041   209    1.00000   11  248          -    1.00000      -   292   45s
  1061   212    1.12500   20  315          -    1.00000      -   293   50s
  1093   233    1.12500   36  339          -    1.00000      -   303   55s
  1145   257    1.00000   61  301          -    1.00000      -   302   60s
  1292   314    1.00000  129  225          -    1.00000      -   274   65s
  1459   422    1.00047  212   71          -    1.00000      -   251   70s
  1547   481    2.00000  256  336          -    1.00000      -   251   75s
  1643   545    2.22677  304  375          -    1.00000      -   255   80s
  1773   669    2.38191  369  283          -    1.00000      -   257   85s
  1890   786    4.08967  428  423          -    1.00000      -   259   90s
H 1975   287                       2.0000000    1.00000  50.0%   265   98s
H 1975    11                       1.0000000    1.00000  0.00%   265   98s

Cutting planes:
  Gomory: 9
  Cover: 85
  Clique: 7
  MIR: 17
  StrongCG: 8
  Flow cover: 55
  Inf proof: 4
  Zero half: 20
  RLT: 3

Explored 1976 nodes (1040370 simplex iterations) in 98.25 seconds
Thread count was 1 (of 80 available processors)

Solution count 2: 1 2 

Optimal solution found (tolerance 1.00e-04)
Best objective 1.000000000000e+00, best bound 1.000000000000e+00, gap 0.0000%
